
Gurobi 9.1.2 (win64) logging started Sun Dec  5 19:34:20 2021

Gurobi Optimizer version 9.1.2 build v9.1.2rc0 (win64)
Thread count: 8 physical cores, 8 logical processors, using up to 8 threads
Optimize a model with 1 rows, 137 columns and 136 nonzeros
Model fingerprint: 0x6944c9d4
Variable types: 1 continuous, 136 integer (136 binary)
Coefficient statistics:
  Matrix range     [1e+00, 1e+01]
  Objective range  [1e+00, 1e+00]
  Bounds range     [5e+01, 5e+01]
  RHS range        [1e+01, 1e+01]
Presolve time: 0.00s
Presolved: 1 rows, 137 columns, 136 nonzeros
Variable types: 1 continuous, 136 integer (136 binary)

Root simplex log...

Iteration    Objective       Primal Inf.    Dual Inf.      Time
       0   -4.9405582e+01   1.533845e-01   0.000000e+00     16s
       6   -4.3245975e+01   0.000000e+00   0.000000e+00     16s

Root relaxation: objective -4.324598e+01, 6 iterations, 0.00 seconds

    Nodes    |    Current Node    |     Objective Bounds      |     Work
 Expl Unexpl |  Obj  Depth IntInf | Incumbent    BestBd   Gap | It/Node Time

     0     0  -43.24598    0    1          -  -43.24598      -     -   15s
H    0     0                       0.9198755  -43.24598  4801%     -   16s
H    0     0                       0.8995568  -43.24598  4907%     -   17s
     0     0  -23.53848    0    5    0.89956  -23.53848  2717%     -   17s
H    0     0                       0.8875412  -23.53848  2752%     -   17s
     0     0  -21.10399    0    7    0.88754  -21.10399  2478%     -   17s
H    0     0                       0.8875412  -21.10399  2478%     -   18s
     0     0  -20.99826    0    8    0.88754  -20.99826  2466%     -   18s
     0     0  -20.95059    0    7    0.88754  -20.95059  2461%     -   18s
     0     0  -20.94466    0    9    0.88754  -20.94466  2460%     -   18s
     0     0  -20.46212    0    8    0.88754  -20.46212  2405%     -   18s
     0     0  -20.22583    0    9    0.88754  -20.22583  2379%     -   19s
     0     0  -20.17092    0   10    0.88754  -20.17092  2373%     -   19s
     0     0  -20.11922    0   10    0.88754  -20.11922  2367%     -   19s
     0     0  -19.52061    0   10    0.88754  -19.52061  2299%     -   19s
     0     0  -19.17642    0   10    0.88754  -19.17642  2261%     -   19s
     0     0  -19.14476    0   10    0.88754  -19.14476  2257%     -   19s
     0     0  -17.23368    0    9    0.88754  -17.23368  2042%     -   19s
     0     0  -15.88867    0    9    0.88754  -15.88867  1890%     -   19s
     0     0  -15.74315    0    9    0.88754  -15.74315  1874%     -   20s
     0     0  -15.67408    0    9    0.88754  -15.67408  1866%     -   20s
     0     0  -15.67408    0    4    0.88754  -15.67408  1866%     -   20s
     0     0  -15.66856    0    9    0.88754  -15.66856  1865%     -   21s
     0     0  -15.35242    0   10    0.88754  -15.35242  1830%     -   21s
     0     0  -15.29872    0   10    0.88754  -15.29872  1824%     -   21s
     0     0  -15.09594    0   11    0.88754  -15.09594  1801%     -   21s
     0     0  -15.07914    0   11    0.88754  -15.07914  1799%     -   21s
     0     0  -15.07500    0   11    0.88754  -15.07500  1799%     -   21s
     0     0  -15.07393    0   11    0.88754  -15.07393  1798%     -   21s
     0     0  -14.99696    0   12    0.88754  -14.99696  1790%     -   21s
     0     0  -14.99617    0   11    0.88754  -14.99617  1790%     -   21s
     0     2  -14.99595    0   11    0.88754  -14.99595  1790%     -   22s
   259    89   -2.06929    9    4    0.88754   -9.86188  1211%   4.0   25s
   799     0     cutoff   18         0.88754   -1.65843   287%   4.0   32s

Cutting planes:
  Cover: 1
  MIR: 10
  Lazy constraints: 111

Explored 848 nodes (3446 simplex iterations) in 32.97 seconds
Thread count was 8 (of 8 available processors)

Solution count 4: 0.887541 0.887541 0.899557 0.919875 

Optimal solution found (tolerance 1.00e-04)
Best objective 8.875411796624e-01, best bound 8.875411796624e-01, gap 0.0000%

User-callback calls 2088, time in user-callback 36.27 sec
